%BLOCK LATTICE_CART
Bohr
  40.029102718977   0.000000000000   0.000000000000
   0.000000000000  74.278347569400   0.000000000000
   0.000000000000   0.000000000000   9.974062417979
%ENDBLOCK LATTICE_CART
%BLOCK POSITIONS_FRAC
Ga  0.14156852  0.14217414  0.00477190
N   0.00002336  0.19004978  0.13047398
Ga  0.14227590  0.19040720  0.50486202
N   0.14150019  0.14290721  0.63124373
Ga  0.07157465  0.21674302  0.00440609
N   0.07289939  0.26462103  0.12973285
Ga  0.07260465  0.26503947  0.50518324
N   0.07152951  0.21741781  0.63047557
Ga  0.14698794  0.28990702  0.00476074
N   0.00001003  0.33843996  0.12805805
Ga  0.15310325  0.33781225  0.50651954
N   0.14590842  0.29038168  0.63045036
Ga  0.28345978  0.14087478  0.00460402
N   0.14229823  0.18979362  0.13079345
Ga  0.28369039  0.18820106  0.50481247
N   0.28348904  0.14135332  0.63231874
Ga  0.21482404  0.21568391  0.00468659
N   0.21808364  0.26338311  0.13072431
Ga  0.21692676  0.26379535  0.50516202
N   0.21457907  0.21632714  0.63108058
Ga  0.29281136  0.28798984  0.00429272
N   0.15534696  0.33782335  0.12799179
Ga  0.30437069  0.33554808  0.50563942
N   0.29057714  0.28857709  0.63138173
Ga  0.42707451  0.13889584  0.00392999
N   0.28386922  0.18780666  0.13247673
Ga  0.42705629  0.18588008  0.50436049
N   0.42737401  0.13949402  0.63306751
Ga  0.35708847  0.21204609  0.00465420
N   0.35873358  0.25881736  0.13457971
Ga  0.35734441  0.25891530  0.50552724
N   0.35654114  0.21227171  0.63330855
Ga  0.43335670  0.28102621  0.00504950
N   0.31176181  0.33539507  0.12842911
Ga  0.44675943  0.32849064  0.52259984
N   0.42971787  0.28144360  0.63662658
Ga  0.57295353  0.13889740  0.00395597
N   0.42662907  0.18506686  0.13395538
Ga  0.57298866  0.18587913  0.50438482
N   0.57266278  0.13949272  0.63308237
Ga  0.50001500  0.20823605  0.00431178
N   0.50001072  0.25330679  0.13910637
Ga  0.50001366  0.25533351  0.50740441
N   0.50002544  0.20923489  0.63551654
Ga  0.56665816  0.28102865  0.00504169
N   0.46292883  0.32633525  0.12838584
Ga  0.55325896  0.32848903  0.52258462
N   0.57031002  0.28144448  0.63662459
Ga  0.71656903  0.14087522  0.00463199
N   0.57340845  0.18507046  0.13396130
Ga  0.71635620  0.18820103  0.50483345
N   0.71654355  0.14135136  0.63233264
Ga  0.64294535  0.21204928  0.00468480
N   0.64128289  0.25882185  0.13458276
Ga  0.64268123  0.25891408  0.50553852
N   0.64350642  0.21227155  0.63332000
Ga  0.70721139  0.28798851  0.00427959
N   0.53708366  0.32633621  0.12837713
Ga  0.69564630  0.33555044  0.50562089
N   0.70945098  0.28857795  0.63136523
Ga  0.85846357  0.14217297  0.00478066
N   0.71616680  0.18780953  0.13249527
Ga  0.85775563  0.19040730  0.50485928
N   0.85852344  0.14290667  0.63125351
Ga  0.78521982  0.21568258  0.00469454
N   0.78194619  0.26338082  0.13070267
Ga  0.78310059  0.26379563  0.50513313
N   0.78546131  0.21632915  0.63108766
Ga  0.85304732  0.28990255  0.00471452
N   0.68825681  0.33539629  0.12840178
Ga  0.84691802  0.33781185  0.50649118
N   0.85412120  0.29038049  0.63042075
Ga  0.00001597  0.14222722  0.00523988
N   0.85774311  0.18979272  0.13079101
Ga  0.00001890  0.19073100  0.50512728
N   0.00001727  0.14304639  0.63109516
Ga  0.92847081  0.21674223  0.00438931
N   0.92714531  0.26461948  0.12971190
Ga  0.92742928  0.26503774  0.50516695
N   0.92850214  0.21741488  0.63045548
Ga  0.00002182  0.29043481  0.00473032
N   0.84466861  0.33781894  0.12796042
Ga  0.00001220  0.33838230  0.50647834
N   0.00001606  0.29083905  0.63024748
Ga  0.07819935  0.36199399  0.00575498
N   0.08118784  0.40989207  0.12676695
Ga  0.08080791  0.40933463  0.50629177
N   0.07712778  0.36189481  0.62875248
Ga  0.16339902  0.43133798  0.00547356
N   0.00000966  0.47969810  0.12645156
Ga  0.16570280  0.47817723  0.50579347
N   0.16285312  0.43066090  0.62663106
Ga  0.08326465  0.50042653  0.00553910
N   0.08387740  0.54816434  0.12616945
Ga  0.08379897  0.54686831  0.50568866
N   0.08316837  0.49928369  0.62648425
Ga  0.16790399  0.56840708  0.00548839
N   0.00001425  0.61621396  0.12607888
Ga  0.16789629  0.61490284  0.50539787
N   0.16787707  0.56713854  0.62585736
Ga  0.08384351  0.63647743  0.00544858
N   0.08321444  0.68406701  0.12610753
Ga  0.08331711  0.68288953  0.50515854
N   0.08389616  0.63518021  0.62595497
Ga  0.16584925  0.70502907  0.00559425
N   0.00001571  0.75206766  0.12683254
Ga  0.16349846  0.75186190  0.50536830
N   0.16615126  0.70403455  0.62579703
Ga  0.08088299  0.77391526  0.00625221
N   0.07712963  0.82136062  0.12882243
Ga  0.07821878  0.82125077  0.50580712
N   0.08124383  0.77333299  0.62654183
Ga  0.23519660  0.36076654  0.00562080
N   0.24433335  0.40859735  0.12599485
Ga  0.24316424  0.40813638  0.50626367
N   0.23092914  0.36095933  0.62904680
Ga  0.32859472  0.42927413  0.00447117
N   0.16602303  0.47915275  0.12601322
Ga  0.33200792  0.47637647  0.50545436
N   0.32773749  0.42882590  0.62478204
Ga  0.25006244  0.49944889  0.00522053
N   0.25149582  0.54741258  0.12547479
Ga  0.25130252  0.54626050  0.50564594
N   0.24982807  0.49840905  0.62541175
Ga  0.33543679  0.56806768  0.00562344
N   0.16789597  0.61620059  0.12571806
Ga  0.33547367  0.61523783  0.50554995
N   0.33546666  0.56695044  0.62479891
Ga  0.25139501  0.63697185  0.00553009
N   0.24995366  0.68480185  0.12539986
Ga  0.25018488  0.68374416  0.50523026
N   0.25153798  0.63579366  0.62542638
Ga  0.33206095  0.70696582  0.00555407
N   0.16299158  0.75254861  0.12652627
Ga  0.32864051  0.75400226  0.50442142
N   0.33245731  0.70609937  0.62513476
Ga  0.24321888  0.77517925  0.00617509
N   0.23094700  0.82238377  0.12886701
Ga  0.23518528  0.82252890  0.50555874
N   0.24437635  0.77468803  0.62582650
Ga  0.39424002  0.35819497  0.00467267
N   0.41091420  0.40555955  0.12384078
Ga  0.40828988  0.40472524  0.50416789
N   0.38131836  0.35915657  0.63226481
Ga  0.49999888  0.42495320  0.00322571
N   0.33243868  0.47717761  0.12507600
Ga  0.50000235  0.47260690  0.50592267
N   0.49999776  0.42321081  0.62174694
Ga  0.41731881  0.49705364  0.00543970
N   0.41786835  0.54552424  0.12463537
Ga  0.41797945  0.54454046  0.50580503
N   0.41745243  0.49596805  0.62407684
Ga  0.50001571  0.56792216  0.00573114
N   0.33552983  0.61638395  0.12478498
Ga  0.50000653  0.61545505  0.50567843
N   0.50001358  0.56702619  0.62468476
Ga  0.41799564  0.63881981  0.00563925
N   0.41749806  0.68737104  0.12404167
Ga  0.41735547  0.68627980  0.50539083
N   0.41789826  0.63784191  0.62449517
Ga  0.50000670  0.71077834  0.00583691
N   0.32782546  0.75454848  0.12467188
Ga  0.50000535  0.75846566  0.50299175
N   0.50000549  0.70963663  0.62344096
Ga  0.40833149  0.77872428  0.00388301
N   0.38129083  0.82428043  0.13199408
Ga  0.39412228  0.82518096  0.50439946
N   0.41088939  0.77783390  0.62354007
Ga  0.60577579  0.35819623  0.00465813
N   0.58909005  0.40556073  0.12382691
Ga  0.59171565  0.40472478  0.50415786
N   0.61869485  0.35915726  0.63224635
Ga  0.67142041  0.42927206  0.00446810
N   0.50000241  0.47374112  0.12372578
Ga  0.66801057  0.47637371  0.50544994
N   0.67227616  0.42882285  0.62477503
Ga  0.58269460  0.49704581  0.00543521
N   0.58215514  0.54551769  0.12463740
Ga  0.58204069  0.54453566  0.50580304
N   0.58256002  0.49596179  0.62407971
Ga  0.66458929  0.56806479  0.00564066
N   0.50000745  0.61636252  0.12469007
Ga  0.66454213  0.61523587  0.50555114
N   0.66455426  0.56694687  0.62480796
Ga  0.58201843  0.63881890  0.00564051
N   0.58251527  0.68737171  0.12403664
Ga  0.58265538  0.68628083  0.50538358
N   0.58211901  0.63784210  0.62448750
Ga  0.66795183  0.70696988  0.00555182
N   0.50000637  0.76021423  0.12140475
Ga  0.67137522  0.75400481  0.50440830
N   0.66755410  0.70610143  0.62512577
Ga  0.59168515  0.77872878  0.00385350
N   0.61872742  0.82428407  0.13198567
Ga  0.60589538  0.82518387  0.50438714
N   0.58912313  0.77783659  0.62351541
Ga  0.76482693  0.36076594  0.00560826
N   0.75568991  0.40859819  0.12598879
Ga  0.75685339  0.40813540  0.50625745
N   0.76909358  0.36095853  0.62902615
Ga  0.83662600  0.43133795  0.00546189
N   0.66757959  0.47717567  0.12506919
Ga  0.83431866  0.47817570  0.50579253
N   0.83716760  0.43065938  0.62662445
Ga  0.74995904  0.49944699  0.00521285
N   0.74853296  0.54741041  0.12546986
Ga  0.74872299  0.54625773  0.50564930
N   0.75019231  0.49840519  0.62540760
Ga  0.83212571  0.56840856  0.00548317
N   0.66448941  0.61638440  0.12478137
Ga  0.83212084  0.61490374  0.50539856
N   0.83215044  0.56713856  0.62584079
Ga  0.74862355  0.63697598  0.00553064
N   0.75006466  0.68480763  0.12539580
Ga  0.74983080  0.68374756  0.50523017
N   0.74848038  0.63579587  0.62542854
Ga  0.83417663  0.70503303  0.00559379
N   0.67219037  0.75455382  0.12465111
Ga  0.83653188  0.75186627  0.50536350
N   0.83387086  0.70403900  0.62579407
Ga  0.75680183  0.77518270  0.00614099
N   0.76907369  0.82238790  0.12883251
Ga  0.76483649  0.82253008  0.50553058
N   0.75564345  0.77468938  0.62579745
Ga  0.92181552  0.36199158  0.00574634
N   0.91883390  0.40989048  0.12675979
Ga  0.91921679  0.40933454  0.50628315
N   0.92289475  0.36189393  0.62874751
Ga  0.00001051  0.43193323  0.00565643
N   0.83400153  0.47915289  0.12601524
Ga  0.00001206  0.47869653  0.50596595
N   0.00001259  0.43120231  0.62719559
Ga  0.91675565  0.50042732  0.00554369
N   0.91615734  0.54816532  0.12617267
Ga  0.91622836  0.54686887  0.50568802
N   0.91685346  0.49928320  0.62648524
Ga  0.00001731  0.56856085  0.00560893
N   0.83212321  0.61620210  0.12571506
Ga  0.00001245  0.61483118  0.50540566
N   0.00001026  0.56720331  0.62629872
Ga  0.91617972  0.63647740  0.00545431
N   0.91681260  0.68406915  0.12610087
Ga  0.91670370  0.68289072  0.50515887
N   0.91612378  0.63517982  0.62593689
Ga  0.00001339  0.70458401  0.00552367
N   0.83703467  0.75255310  0.12651814
Ga  0.00001701  0.75130702  0.50541526
N   0.00001026  0.70353337  0.62598479
Ga  0.91914434  0.77391568  0.00624401
N   0.92290803  0.82136262  0.12880004
Ga  0.92182049  0.82125168  0.50579965
N   0.91879115  0.77333435  0.62653227
Ga  0.15306434  0.84548031  0.00648788
N   0.00001478  0.89248776  0.13017778
Ga  0.14690430  0.89339600  0.50464369
N   0.15531103  0.84548042  0.62800081
Ga  0.07260288  0.91829194  0.00523781
N   0.07153035  0.96592173  0.13044627
Ga  0.07156963  0.96659885  0.50433850
N   0.07287700  0.91872303  0.62983229
Ga  0.14227708  0.99295560  0.00490252
N   0.00002117  0.04022064  0.13119265
Ga  0.14162604  0.04116826  0.50464362
N   0.14227249  0.99357343  0.63087398
Ga  0.07067678  0.06741687  0.00503170
N   0.07078362  0.11507320  0.13116246
Ga  0.07068828  0.11585976  0.50515652
N   0.07078223  0.06819392  0.63107119
Ga  0.30431537  0.84785512  0.00540943
N   0.14587478  0.89293440  0.13038283
Ga  0.29277446  0.89537923  0.50400750
N   0.31168284  0.84799363  0.62822875
Ga  0.21686649  0.91955038  0.00488299
N   0.21453680  0.96698840  0.13110826
Ga  0.21472969  0.96762077  0.50471629
N   0.21800594  0.91992035  0.63048853
Ga  0.28359383  0.99518098  0.00464477
N   0.14155316  0.04044841  0.13109066
Ga  0.28351904  0.04250099  0.50456962
N   0.28379302  0.99552856  0.63231194
Ga  0.21187481  0.06780274  0.00477026
N   0.21175179  0.11497137  0.13188223
Ga  0.21184186  0.11557380  0.50493722
N   0.21178096  0.06838276  0.63173155
Ga  0.44676433  0.85494431  0.02272162
N   0.29056210  0.89483727  0.13111857
Ga  0.43340666  0.90231973  0.50543070
N   0.46291564  0.85698066  0.62858306
Ga  0.35732928  0.92451786  0.00552702
N   0.35651861  0.97117547  0.13318648
Ga  0.35707046  0.97133102  0.50457523
N   0.35872380  0.92452483  0.63452288
Ga  0.42702300  0.99759639  0.00443519
N   0.28351784  0.04201363  0.13221561
Ga  0.42710789  0.04452646  0.50394874
N   0.42659556  0.99833472  0.63397451
Ga  0.35456028  0.06814586  0.00393488
N   0.35429280  0.11465233  0.13268605
Ga  0.35459457  0.11528555  0.50401234
N   0.35431204  0.06876989  0.63257154
Ga  0.55325617  0.85494833  0.02270466
N   0.42968306  0.90196485  0.13692137
Ga  0.56661435  0.90232134  0.50542935
N   0.53710336  0.85698210  0.62857398
Ga  0.50000827  0.92810540  0.00795703
N   0.50001876  0.97422540  0.13566700
Ga  0.50001620  0.97515485  0.50449431
N   0.50000999  0.93007696  0.63955926
Ga  0.57302081  0.99759073  0.00446290
N   0.42736530  0.04399439  0.13305138
Ga  0.57292469  0.04452283  0.50396968
N   0.57344277  0.99833059  0.63399638
Ga  0.50002368  0.06830614  0.00404105
N   0.50001386  0.11470843  0.13277929
Ga  0.50001524  0.11515771  0.50401104
N   0.50001894  0.06875346  0.63283621
Ga  0.69570381  0.84785771  0.00538877
N   0.57033775  0.90196914  0.13690830
Ga  0.70725389  0.89538083  0.50399674
N   0.68833589  0.84799619  0.62820486
Ga  0.64270011  0.92451844  0.00554201
N   0.64353289  0.97117446  0.13320133
Ga  0.64296775  0.97132901  0.50459536
N   0.64129770  0.92452412  0.63453544
Ga  0.71644935  0.99518512  0.00465596
N   0.57267071  0.04399092  0.13306756
Ga  0.71651304  0.04250187  0.50459311
N   0.71625150  0.99552788  0.63232137
Ga  0.64547901  0.06814432  0.00396122
N   0.64573646  0.11465144  0.13269827
Ga  0.64543752  0.11528335  0.50402299
N   0.64570849  0.06876742  0.63259156
Ga  0.84696421  0.84547909  0.00646339
N   0.70946752  0.89483794  0.13110675
Ga  0.85313154  0.89339517  0.50461057
N   0.84471618  0.84547892  0.62797004
Ga  0.78315989  0.91955391  0.00485926
N   0.78550075  0.96699029  0.13110280
Ga  0.78530955  0.96761991  0.50471189
N   0.78203127  0.91992022  0.63046072
Ga  0.85775873  0.99295740  0.00489407
N   0.71652380  0.04201699  0.13223619
Ga  0.85841469  0.04116636  0.50465063
N   0.85777052  0.99357366  0.63088105
Ga  0.78816384  0.06780468  0.00477959
N   0.78827838  0.11497140  0.13190169
Ga  0.78818812  0.11557159  0.50496549
N   0.78825962  0.06837914  0.63174082
Ga  0.00002128  0.84490230  0.00654182
N   0.85414809  0.89293462  0.13034954
Ga  0.00001410  0.89285576  0.50483827
N   0.00002038  0.84481231  0.62800265
Ga  0.92742585  0.91829104  0.00522354
N   0.92849641  0.96592204  0.13044273
Ga  0.92846863  0.96659924  0.50433361
N   0.92715689  0.91872382  0.62982268
Ga  0.00001342  0.99257569  0.00505872
N   0.85847669  0.04044931  0.13109393
Ga  0.00002300  0.04104973  0.50518711
N   0.00001968  0.99325444  0.63052557
Ga  0.92936318  0.06741608  0.00504540
N   0.92925366  0.11507272  0.13117223
Ga  0.92934462  0.11586011  0.50516634
N   0.92926095  0.06819315  0.63107877
%ENDBLOCK POSITIONS_FRAC
