%BLOCK LATTICE_CART
Bohr
  33.998133227557   0.000000000000   0.000000000000
   0.000000000000  74.174353898583   0.000000000000
   0.000000000000   0.000000000000   9.972791777089
%ENDBLOCK LATTICE_CART
%BLOCK POSITIONS_FRAC
Ga  0.16436688  0.99684889  0.00509577
N   0.99997145  0.04427648  0.13142033
Ga  0.16436675  0.04481934  0.50510660
N   0.16433095  0.99751094  0.63227003
Ga  0.08244761  0.07184640  0.00489527
N   0.08271749  0.11958322  0.13122983
Ga  0.08258385  0.12026349  0.50479467
N   0.08249431  0.07266296  0.63154912
Ga  0.16687642  0.14606250  0.00468907
N   0.99998999  0.19491170  0.13018340
Ga  0.16827852  0.19431777  0.50533054
N   0.16663864  0.14673304  0.63145014
Ga  0.08590694  0.22067605  0.00474704
N   0.09210470  0.26880730  0.12789944
Ga  0.09028063  0.26874350  0.50669015
N   0.08505198  0.22119146  0.63086961
Ga  0.33045633  0.99718308  0.00398200
N   0.16433511  0.04415246  0.13227514
Ga  0.33045866  0.04448419  0.50398771
N   0.33018585  0.99784993  0.63274177
Ga  0.24771861  0.07062026  0.00467598
N   0.24745811  0.11769448  0.13268345
Ga  0.24733656  0.11814025  0.50493159
N   0.24775756  0.07119154  0.63258652
Ga  0.33305778  0.14229853  0.00431292
N   0.16935552  0.19391908  0.13097765
Ga  0.33278437  0.18931492  0.50545308
N   0.33256299  0.14258365  0.63327256
Ga  0.25687617  0.21867333  0.00422272
N   0.27717180  0.26631482  0.12844023
Ga  0.26892965  0.26638986  0.50605030
N   0.25464944  0.21923417  0.63157347
Ga  0.49995777  0.99729405  0.00332243
N   0.33018809  0.04381219  0.13274569
Ga  0.49995817  0.04437993  0.50333560
N   0.49996727  0.99789014  0.63249954
Ga  0.41502845  0.06853065  0.00343387
N   0.41416288  0.11480097  0.13370863
Ga  0.41470282  0.11567848  0.50404741
N   0.41530310  0.06920428  0.63294817
Ga  0.49997578  0.13840687  0.00368842
N   0.33419695  0.18925857  0.13455085
Ga  0.49998505  0.18561810  0.50727738
N   0.49997684  0.13945293  0.63526067
Ga  0.42193202  0.21162116  0.00502535
N   0.45618645  0.25712473  0.12853857
Ga  0.43724503  0.25914994  0.52298163
N   0.41768902  0.21200611  0.63679928
Ga  0.66946138  0.99717843  0.00396753
N   0.49997291  0.04377796  0.13252144
Ga  0.66946050  0.04448492  0.50396940
N   0.66972514  0.99784877  0.63270575
Ga  0.58489270  0.06853160  0.00341926
N   0.58578448  0.11480321  0.13369325
Ga  0.58525428  0.11568196  0.50403830
N   0.58461133  0.06920883  0.63294377
Ga  0.66690428  0.14229551  0.00431065
N   0.49998712  0.18357355  0.13902619
Ga  0.66719193  0.18931312  0.50543894
N   0.66739414  0.14258293  0.63327116
Ga  0.57804983  0.21161704  0.00501667
N   0.54380419  0.25712222  0.12853324
Ga  0.56274416  0.25914765  0.52298148
N   0.58229067  0.21200330  0.63679913
Ga  0.83556895  0.99684895  0.00506495
N   0.66972661  0.04381120  0.13271134
Ga  0.83556753  0.04481795  0.50507190
N   0.83559104  0.99751298  0.63224757
Ga  0.75220660  0.07062045  0.00468184
N   0.75250077  0.11769594  0.13267860
Ga  0.75261554  0.11813557  0.50493429
N   0.75216488  0.07118570  0.63258396
Ga  0.83308872  0.14606165  0.00467077
N   0.66578138  0.18925597  0.13455185
Ga  0.83169098  0.19431387  0.50532875
N   0.83331834  0.14672698  0.63143371
Ga  0.74309948  0.21866941  0.00421936
N   0.72281580  0.26631095  0.12844331
Ga  0.73105691  0.26638739  0.50605913
N   0.74532587  0.21923137  0.63157699
Ga  0.99996904  0.99655912  0.00486443
N   0.83558985  0.04414982  0.13224627
Ga  0.99996851  0.04510826  0.50486593
N   0.99997332  0.99738656  0.63141849
Ga  0.91748576  0.07184636  0.00486944
N   0.91724609  0.11958221  0.13121001
Ga  0.91736869  0.12025968  0.50476682
N   0.91744207  0.07266126  0.63153691
Ga  0.99998409  0.14693744  0.00445159
N   0.83061888  0.19391651  0.13097861
Ga  0.99998496  0.19536661  0.50490775
N   0.99997583  0.14771324  0.63098045
Ga  0.91406265  0.22067443  0.00474287
N   0.90787941  0.26880728  0.12789141
Ga  0.90970092  0.26874422  0.50668401
N   0.91491416  0.22119186  0.63086349
Ga  0.18637592  0.29163307  0.00589257
N   0.99999759  0.34073919  0.12608914
Ga  0.19376978  0.33901486  0.50625075
N   0.18204537  0.29170976  0.62907726
Ga  0.09800134  0.36192516  0.00532640
N   0.09974675  0.40984981  0.12521254
Ga  0.09949360  0.40853892  0.50527134
N   0.09759862  0.36099080  0.62620326
Ga  0.20039415  0.42959129  0.00470397
N   0.99999766  0.47817933  0.12495107
Ga  0.20152907  0.47598270  0.50517239
N   0.20016898  0.42812694  0.62487838
Ga  0.10104755  0.49778579  0.00484664
N   0.10102976  0.54561997  0.12501944
Ga  0.10104566  0.54386202  0.50484342
N   0.10103264  0.49602886  0.62503125
Ga  0.20152853  0.56566719  0.00514455
N   0.99999735  0.61285980  0.12525566
Ga  0.20039920  0.61205647  0.50465823
N   0.20162764  0.56406544  0.62483307
Ga  0.09949390  0.63311071  0.00520405
N   0.09759570  0.68065976  0.12613523
Ga  0.09800066  0.67972999  0.50526685
N   0.09974969  0.63180421  0.62515782
Ga  0.19376512  0.70263577  0.00618973
N   0.99999588  0.74918564  0.12869155
Ga  0.18637576  0.75002254  0.50584398
N   0.19492265  0.70201020  0.62557417
Ga  0.37463853  0.28896585  0.00494243
N   0.19492308  0.33964521  0.12564498
Ga  0.39029456  0.33540116  0.50386610
N   0.35986895  0.28969702  0.63232932
Ga  0.29522473  0.35997041  0.00432240
N   0.29931374  0.40795124  0.12465357
Ga  0.29883173  0.40677154  0.50511257
N   0.29430047  0.35921064  0.62455390
Ga  0.40093910  0.42715686  0.00501708
N   0.20162705  0.47758641  0.12486012
Ga  0.40164843  0.47418519  0.50555185
N   0.40103200  0.42565732  0.62371595
Ga  0.30248796  0.49746726  0.00537244
N   0.30255052  0.54576198  0.12442855
Ga  0.30248876  0.54418005  0.50536023
N   0.30255088  0.49588773  0.62445095
Ga  0.40165054  0.56746507  0.00553366
N   0.20017142  0.61352430  0.12483492
Ga  0.40093565  0.61449657  0.50498081
N   0.40147370  0.56604828  0.62428038
Ga  0.29883657  0.63487999  0.00508228
N   0.29429887  0.68244291  0.12451206
Ga  0.29522266  0.68168627  0.50428601
N   0.29931245  0.63370363  0.62463836
Ga  0.39029394  0.70625655  0.00382429
N   0.18204404  0.74994352  0.12902854
Ga  0.37462825  0.75269138  0.50488889
N   0.39346301  0.70518933  0.62347026
Ga  0.62535214  0.28896352  0.00494727
N   0.39346580  0.33647023  0.12349819
Ga  0.60969882  0.33539969  0.50386384
N   0.64012166  0.28969504  0.63233170
Ga  0.49999748  0.35556753  0.00242982
N   0.49999878  0.40432537  0.12328447
Ga  0.50000037  0.40280962  0.50568643
N   0.49999739  0.35353529  0.62142436
Ga  0.59905633  0.42715634  0.00502157
N   0.40147664  0.47560498  0.12431268
Ga  0.59834761  0.47418484  0.50555652
N   0.59896599  0.42565669  0.62371593
Ga  0.50000054  0.49729110  0.00548232
N   0.49999863  0.54570434  0.12444530
Ga  0.49999901  0.54435822  0.50546333
N   0.49999911  0.49594421  0.62445442
Ga  0.59834790  0.56746617  0.00553338
N   0.40103107  0.61599356  0.12366932
Ga  0.59906156  0.61449757  0.50498425
N   0.59852276  0.56604921  0.62428081
Ga  0.49999840  0.63884559  0.00565932
N   0.49999741  0.68812020  0.12138722
Ga  0.49999757  0.68608890  0.50239891
N   0.49999912  0.63732942  0.62322714
Ga  0.60969969  0.70625677  0.00382869
N   0.35986696  0.75196027  0.13228347
Ga  0.62535704  0.75269337  0.50489571
N   0.60653164  0.70518872  0.62346839
Ga  0.81360888  0.29163074  0.00589390
N   0.60652901  0.33646858  0.12349850
Ga  0.80622645  0.33901420  0.50624630
N   0.81794014  0.29170967  0.62908107
Ga  0.70476974  0.35996878  0.00432095
N   0.70068226  0.40795037  0.12464793
Ga  0.70116278  0.40676943  0.50510570
N   0.70569351  0.35920910  0.62455067
Ga  0.79959983  0.42959066  0.00468662
N   0.59852052  0.47560442  0.12431501
Ga  0.79846638  0.47598149  0.50516330
N   0.79982566  0.42812578  0.62486423
Ga  0.69750833  0.49746721  0.00537336
N   0.69744542  0.54576169  0.12442820
Ga  0.69750720  0.54418047  0.50536093
N   0.69744510  0.49588811  0.62445299
Ga  0.79846833  0.56566624  0.00514424
N   0.59896557  0.61599453  0.12367171
Ga  0.79960058  0.61205734  0.50466559
N   0.79836787  0.56406644  0.62483599
Ga  0.70115756  0.63488076  0.00507976
N   0.70569739  0.68244373  0.12451432
Ga  0.70477498  0.68168680  0.50428911
N   0.70068606  0.63370407  0.62463610
Ga  0.80623136  0.70263623  0.00619342
N   0.64012148  0.75196194  0.13228532
Ga  0.81361365  0.75002452  0.50585237
N   0.80507439  0.70201182  0.62557921
Ga  0.99999321  0.29267483  0.00588150
N   0.80507042  0.33964420  0.12563593
Ga  0.99999821  0.33996795  0.50623223
N   0.99999064  0.29247002  0.62869018
Ga  0.90199390  0.36192321  0.00531760
N   0.90024921  0.40984901  0.12519598
Ga  0.90050544  0.40853839  0.50525978
N   0.90239604  0.36099052  0.62619096
Ga  0.99999721  0.43030664  0.00470965
N   0.79836903  0.47758594  0.12485081
Ga  0.99999971  0.47646494  0.50474930
N   0.99999797  0.42879868  0.62525446
Ga  0.89894720  0.49778549  0.00484031
N   0.89896698  0.54561916  0.12501997
Ga  0.89894929  0.54386153  0.50484085
N   0.89896372  0.49602801  0.62502516
Ga  0.99999702  0.56519174  0.00476522
N   0.79982376  0.61352257  0.12484095
Ga  0.99999831  0.61134915  0.50470343
N   0.99999752  0.56347244  0.62495261
Ga  0.90050117  0.63311173  0.00521874
N   0.90239960  0.68066099  0.12614143
Ga  0.90199511  0.67973131  0.50527555
N   0.90025014  0.63180621  0.62516694
Ga  0.99999841  0.70168636  0.00618618
N   0.81794449  0.74994364  0.12903394
Ga  0.99999447  0.74898205  0.50588020
N   0.99999853  0.70091984  0.62604076
Ga  0.09028282  0.77291337  0.00667454
N   0.08505729  0.82046516  0.13086289
Ga  0.08590384  0.82098280  0.50475423
N   0.09210640  0.77284828  0.62787247
Ga  0.16828178  0.84734745  0.00533123
N   0.99997558  0.89394783  0.13098529
Ga  0.16687903  0.89560052  0.50467489
N   0.16935169  0.84774136  0.63096719
Ga  0.08257881  0.92140256  0.00478812
N   0.08249471  0.96900003  0.13153644
Ga  0.08244685  0.96981885  0.50488778
N   0.08271758  0.92207865  0.63122117
Ga  0.26892738  0.77526693  0.00602698
N   0.25465088  0.82242663  0.13155639
Ga  0.25687284  0.82298570  0.50420996
N   0.27716791  0.77534343  0.62840389
Ga  0.33278806  0.85234920  0.00544798
N   0.16663952  0.89493361  0.13143282
Ga  0.33305779  0.89936800  0.50430586
N   0.33418736  0.85240483  0.63453255
Ga  0.24733962  0.92352823  0.00492796
N   0.24775596  0.97047292  0.13259387
Ga  0.24771479  0.97104769  0.50468659
N   0.24745761  0.92396946  0.63266999
Ga  0.43725000  0.78251074  0.02294295
N   0.41768016  0.82965212  0.13680892
Ga  0.42192521  0.83003373  0.50504964
N   0.45618200  0.78452809  0.62852921
Ga  0.49998287  0.85603484  0.00727803
N   0.33256688  0.89908123  0.13326129
Ga  0.49997025  0.90325336  0.50368216
N   0.49998578  0.85808155  0.63901124
Ga  0.41470966  0.92598930  0.00403659
N   0.41530581  0.97246034  0.13293226
Ga  0.41502825  0.97313823  0.50342337
N   0.41416610  0.92686153  0.63369405
Ga  0.56273534  0.78251052  0.02293704
N   0.58229291  0.82965272  0.13680144
Ga  0.57805085  0.83003645  0.50502587
N   0.54380345  0.78453026  0.62852796
Ga  0.66718470  0.85234749  0.00545302
N   0.49996984  0.90220217  0.13524124
Ga  0.66689833  0.89936848  0.50430807
N   0.66578415  0.85240389  0.63455134
Ga  0.58524108  0.92598245  0.00403110
N   0.58460681  0.97245227  0.13292928
Ga  0.58488466  0.97313479  0.50341926
N   0.58577530  0.92685677  0.63368327
Ga  0.73106126  0.77526781  0.00602960
N   0.74532561  0.82242696  0.13157286
Ga  0.74309991  0.82298671  0.50422452
N   0.72281788  0.77534416  0.62840615
Ga  0.83168716  0.84734850  0.00531976
N   0.66738607  0.89907883  0.13326006
Ga  0.83308067  0.89560265  0.50465029
N   0.83061977  0.84774390  0.63095765
Ga  0.75260915  0.92352879  0.00491055
N   0.75216749  0.97047509  0.13256961
Ga  0.75220939  0.97104718  0.50466001
N   0.75249500  0.92396849  0.63265503
Ga  0.90970718  0.77291248  0.00667866
N   0.91491180  0.82046559  0.13085046
Ga  0.91406429  0.82098513  0.50473787
N   0.90788234  0.77285001  0.62787348
Ga  0.99998521  0.84629251  0.00492109
N   0.83331463  0.89493449  0.13141168
Ga  0.99997957  0.89472829  0.50446701
N   0.99998754  0.84674831  0.63019272
Ga  0.91736728  0.92140463  0.00477239
N   0.91744441  0.96900144  0.13153840
Ga  0.91748617  0.96982037  0.50487541
N   0.91723845  0.92207993  0.63120432
%ENDBLOCK POSITIONS_FRAC
