%BLOCK LATTICE_CART
Bohr
  27.990811737666   0.000000000000   0.000000000000
   0.000000000000  73.939072994597   0.000000000000
   0.000000000000   0.000000000000   9.974982148279
%ENDBLOCK LATTICE_CART
%BLOCK POSITIONS_FRAC
Ga  0.19793216  0.14595034  0.00200538
N   0.00009872  0.19483852  0.12929556
Ga  0.19696685  0.19369413  0.50200928
N   0.19807639  0.14657278  0.63081327
Ga  0.10037345  0.22215700  0.00171917
N   0.10142591  0.27023675  0.12775244
Ga  0.10074738  0.27055739  0.50141523
N   0.10020937  0.22289338  0.62917567
Ga  0.20640537  0.29543035  0.00045760
N   0.00008402  0.34549534  0.12270142
Ga  0.21769870  0.34345871  0.50180538
N   0.20408007  0.29605979  0.62845724
Ga  0.39839304  0.14390457  0.00145340
N   0.19714795  0.19321182  0.13055700
Ga  0.39775398  0.19126768  0.50158715
N   0.39865390  0.14467303  0.63166785
Ga  0.29967136  0.21851784  0.00136555
N   0.30005653  0.26570037  0.13175065
Ga  0.29837856  0.26577439  0.50239925
N   0.29912194  0.21879547  0.63102430
Ga  0.40601672  0.28843834  0.00192240
N   0.22669669  0.34349840  0.12389476
Ga  0.42352694  0.33609490  0.52014673
N   0.40110582  0.28871517  0.63391963
Ga  0.60189611  0.14390579  0.00146502
N   0.39705232  0.19036792  0.13182365
Ga  0.60249254  0.19126330  0.50160176
N   0.60166290  0.14467316  0.63168018
Ga  0.50011437  0.21450979  0.00101907
N   0.50011245  0.25989004  0.13592173
Ga  0.50009228  0.26182722  0.50398201
N   0.50012226  0.21555166  0.63315831
Ga  0.59416289  0.28844391  0.00191977
N   0.44653317  0.33426575  0.12587149
Ga  0.57663837  0.33610082  0.52015722
N   0.59906507  0.28872146  0.63394758
Ga  0.80241034  0.14591912  0.00202105
N   0.60318884  0.19036948  0.13186753
Ga  0.80323489  0.19366845  0.50201225
N   0.80231868  0.14654047  0.63079156
Ga  0.70055835  0.21851222  0.00138906
N   0.70014859  0.26570327  0.13177752
Ga  0.70179618  0.26578159  0.50244281
N   0.70111102  0.21879574  0.63107287
Ga  0.79381348  0.29544691  0.00052021
N   0.55367041  0.33426715  0.12589130
Ga  0.78248307  0.34346027  0.50181041
N   0.79613393  0.29607011  0.62852525
Ga  0.00016646  0.14702897  0.00232481
N   0.80307950  0.19318475  0.13058032
Ga  0.00009913  0.19544558  0.50194198
N   0.00021693  0.14784749  0.62997754
Ga  0.89982166  0.22215874  0.00169446
N   0.89872230  0.27024097  0.12775621
Ga  0.89944144  0.27055811  0.50143364
N   0.89999709  0.22288887  0.62915705
Ga  0.00007791  0.29706893  0.00048369
N   0.77351356  0.34350983  0.12391731
Ga  0.00008250  0.34517504  0.50196515
N   0.00009557  0.29752165  0.62753505
Ga  0.11488018  0.36858239  0.00102319
N   0.12097096  0.41684324  0.11964680
Ga  0.11997137  0.41599268  0.50066382
N   0.11095541  0.36842973  0.62390738
Ga  0.24465362  0.43667443  0.99916963
N   0.00007561  0.48642265  0.11894370
Ga  0.24899163  0.48318710  0.49955858
N   0.24388114  0.43553484  0.61924937
Ga  0.12544072  0.50556967  0.99904331
N   0.12680179  0.55367078  0.11866573
Ga  0.12655826  0.55157589  0.49907565
N   0.12545202  0.50368291  0.61883846
Ga  0.25340925  0.57240285  0.99919455
N   0.00012352  0.62061910  0.11884441
Ga  0.25333910  0.61863001  0.49920440
N   0.25341541  0.57030817  0.61816030
Ga  0.12655869  0.63939326  0.99904148
N   0.12550051  0.68731625  0.11896337
Ga  0.12554006  0.68540562  0.49886993
N   0.12679771  0.63732428  0.61866620
Ga  0.24903807  0.70771550  0.99948548
N   0.00017026  0.75380329  0.12026713
Ga  0.24469728  0.75416877  0.49922858
N   0.24920194  0.70618165  0.61892569
Ga  0.12007967  0.77486555  0.00097069
N   0.11107855  0.82237178  0.12443625
Ga  0.11491070  0.82226039  0.50138732
N   0.12103511  0.77401095  0.62010038
Ga  0.34558297  0.36611029  0.00149850
N   0.36657189  0.41377304  0.11879072
Ga  0.36261398  0.41237498  0.49894734
N   0.32846261  0.36643725  0.62854368
Ga  0.50010383  0.43240123  0.99676583
N   0.24918948  0.48475343  0.11885175
Ga  0.50009719  0.47878776  0.50053814
N   0.50012106  0.42961985  0.61696133
Ga  0.37611299  0.50299098  0.99919235
N   0.37737193  0.55143601  0.11812976
Ga  0.37745558  0.54958488  0.49956621
N   0.37654741  0.50099512  0.61793622
Ga  0.50034700  0.57222015  0.99924022
N   0.25343597  0.62073493  0.11826683
Ga  0.50017278  0.61892248  0.49949913
N   0.50021583  0.57048136  0.61812664
Ga  0.37744252  0.64147754  0.99962857
N   0.37654505  0.69000621  0.11810615
Ga  0.37607052  0.68802971  0.49924367
N   0.37727368  0.63962465  0.61830931
Ga  0.50011463  0.71194798  0.00040041
N   0.24407383  0.75526736  0.11946309
Ga  0.50010770  0.75849315  0.49674012
N   0.50014809  0.70992040  0.61839603
Ga  0.36306310  0.77826609  0.99902383
N   0.32877294  0.82420740  0.12868272
Ga  0.34583855  0.82468914  0.50166781
N   0.36681340  0.77696900  0.61887882
Ga  0.65466961  0.36610721  0.00152772
N   0.63373867  0.41376953  0.11880101
Ga  0.63770784  0.41236888  0.49890276
N   0.67171822  0.36642844  0.62859255
Ga  0.75559140  0.43666543  0.99918635
N   0.50016920  0.48097375  0.11837393
Ga  0.75118629  0.48318325  0.49953536
N   0.75639121  0.43553158  0.61925060
Ga  0.62411685  0.50298059  0.99916656
N   0.62307227  0.55142401  0.11817259
Ga  0.62291392  0.54957806  0.49957856
N   0.62369150  0.50099418  0.61792867
Ga  0.74696664  0.57240949  0.99918048
N   0.50023065  0.62067036  0.11836085
Ga  0.74694603  0.61865755  0.49925777
N   0.74686429  0.57033130  0.61819179
Ga  0.62291423  0.64150111  0.99960334
N   0.62375188  0.69002894  0.11813783
Ga  0.62415196  0.68805621  0.49921830
N   0.62302637  0.63965518  0.61831953
Ga  0.75123623  0.70773581  0.99948454
N   0.50013387  0.76109261  0.11691760
Ga  0.75560968  0.75419059  0.49920334
N   0.75109418  0.70620768  0.61893155
Ga  0.63735302  0.77827106  0.99903294
N   0.67155279  0.82421944  0.12867801
Ga  0.65451901  0.82471954  0.50172744
N   0.63355269  0.77698901  0.61888972
Ga  0.88533470  0.36858475  0.00101747
N   0.87923046  0.41683964  0.11966611
Ga  0.88028728  0.41598852  0.50066953
N   0.88924055  0.36842920  0.62393316
Ga  0.00007990  0.43831753  0.99950269
N   0.75103546  0.48474417  0.11882554
Ga  0.00008899  0.48481995  0.49947286
N   0.00012667  0.43714391  0.61982951
Ga  0.87465818  0.50557640  0.99894653
N   0.87344435  0.55367852  0.11866416
Ga  0.87367655  0.55158178  0.49906048
N   0.87475655  0.50369040  0.61881179
Ga  0.00013063  0.57263751  0.99882553
N   0.74684325  0.62073443  0.11828457
Ga  0.00010808  0.61840499  0.49883058
N   0.00013015  0.57046639  0.61869845
Ga  0.87365674  0.63940592  0.99910509
N   0.87478330  0.68732185  0.11901953
Ga  0.87469882  0.68542743  0.49891264
N   0.87343846  0.63734861  0.61872933
Ga  0.00014079  0.70608587  0.99958300
N   0.75626845  0.75528351  0.11949204
Ga  0.00012858  0.75258750  0.49976244
N   0.00013369  0.70448814  0.61921370
Ga  0.88028669  0.77486203  0.00091222
N   0.88924830  0.82237009  0.12433720
Ga  0.88549599  0.82225131  0.50130876
N   0.87926477  0.77400580  0.62004859
Ga  0.21793979  0.84727611  0.00222892
N   0.00014971  0.89318268  0.12829392
Ga  0.20659014  0.89522499  0.50055925
N   0.22689233  0.84719162  0.62419767
Ga  0.10087033  0.92007244  0.00162165
N   0.10049137  0.96781995  0.12920374
Ga  0.10055425  0.96861935  0.50171953
N   0.10165121  0.92054135  0.62802621
Ga  0.19712434  0.99709699  0.00201809
N   0.00018472  0.04285484  0.12968772
Ga  0.19816186  0.04481701  0.50196034
N   0.19734515  0.99757863  0.63050440
Ga  0.09850502  0.07130431  0.00210743
N   0.09830593  0.11869093  0.13050235
Ga  0.09854846  0.11939821  0.50222879
N   0.09835099  0.07199312  0.63036706
Ga  0.42356194  0.85467470  0.02025102
N   0.20438046  0.89466725  0.12848101
Ga  0.40611885  0.90241973  0.50188069
N   0.44661137  0.85659967  0.62609008
Ga  0.29850220  0.92505191  0.00227864
N   0.29938069  0.97198952  0.13092416
Ga  0.29994553  0.97232186  0.50130489
N   0.30010396  0.92507928  0.63160244
Ga  0.39786183  0.99962217  0.00170860
N   0.19822467  0.04419397  0.13073139
Ga  0.39848046  0.04703947  0.50149332
N   0.39718954  0.00055705  0.63189915
Ga  0.29716427  0.07167343  0.00178357
N   0.29684026  0.11842186  0.13137039
Ga  0.29723546  0.11919923  0.50185861
N   0.29684528  0.07244751  0.63140691
Ga  0.57673560  0.85467618  0.02029370
N   0.40117046  0.90201174  0.13393782
Ga  0.59429407  0.90244806  0.50192386
N   0.55374630  0.85662239  0.62616418
Ga  0.50015522  0.92890298  0.00418754
N   0.50013345  0.97521479  0.13317562
Ga  0.50017541  0.97630982  0.50103324
N   0.50018608  0.93093470  0.63597969
Ga  0.60244071  0.99961028  0.00170812
N   0.39866743  0.04621784  0.13168318
Ga  0.60189054  0.04699484  0.50163713
N   0.60324897  0.00051600  0.63192307
Ga  0.50014419  0.07178220  0.00179624
N   0.50014047  0.11841570  0.13153670
Ga  0.50017015  0.11913956  0.50176448
N   0.50017527  0.07251574  0.63159886
Ga  0.78235551  0.84728587  0.00219634
N   0.59913716  0.90201724  0.13398545
Ga  0.79394078  0.89524129  0.50080876
N   0.77359385  0.84719282  0.62414096
Ga  0.70183222  0.92504662  0.00243634
N   0.70097745  0.97199148  0.13095292
Ga  0.70051534  0.97232166  0.50138468
N   0.70032140  0.92508254  0.63168220
Ga  0.80320127  0.99711113  0.00202899
N   0.60160092  0.04620225  0.13174014
Ga  0.80226629  0.04485548  0.50197551
N   0.80306712  0.99761474  0.63050693
Ga  0.70314172  0.07165706  0.00183484
N   0.70344437  0.11841327  0.13136698
Ga  0.70314274  0.11920192  0.50182573
N   0.70348296  0.07244407  0.63140238
Ga  0.00014548  0.84552723  0.00242288
N   0.79604203  0.89467041  0.12861763
Ga  0.00018734  0.89382203  0.50109058
N   0.00018487  0.84538128  0.62337790
Ga  0.89949211  0.92010428  0.00170275
N   0.89987782  0.96784453  0.12922131
Ga  0.89982768  0.96865460  0.50174732
N   0.89874641  0.92057706  0.62816529
Ga  0.00017569  0.99515397  0.00202596
N   0.80215236  0.04420979  0.13073877
Ga  0.00018419  0.04367425  0.50211207
N   0.00020990  0.99587983  0.62941700
Ga  0.90188982  0.07130448  0.00214939
N   0.90205380  0.11868201  0.13051753
Ga  0.90195587  0.11940273  0.50222550
N   0.90205602  0.07200316  0.63043173
%ENDBLOCK POSITIONS_FRAC
